NAME : morphed20-5-6
COMMENT : Generated using the function morphInstances from the R-package netgen (Bossek,2015) - Number of clusters: 5 Alpha: 0.5
TYPE : TSP
DIMENSION : 20
EDGE_WEIGHT_TYPE : EUC_2D
NODE_COORD_SECTION
1 64.1414372393 96.7874942586
2 86.6100554194 90.7200855052
3 24.4986218698 8.6383262756
4 22.3544287729 24.9383384022
5 74.6836514369 71.3726556354
6 91.559906007 34.7905632014
7 88.3428469353 37.6309435318
8 75.9512228314 94.4755792945
9 37.3928911463 14.6811510292
10 4.0894339173 36.319113098
11 69.6594151218 53.2901345898
12 85.5877330849 25.9654551775
13 5.4679479989 61.8640017133
14 41.9709979601 70.8242904147
15 55.3721059989 9.1468762657
16 42.3096584311 81.7092788761
17 32.2651597446 32.8257980084
18 45.838455827 3.3879309348
19 44.2119301569 98.7097281829
20 65.2223928495 72.3951371377
EOF
